#######################################
### Exact MIP solver for the HHCRSP ###
#######################################
-- Instance file: new-instances/HHCRSP_300_60_88_0.4_R_RC.txt
-- Max threads: 4
-- Time limit: 999999 seconds
-- Use initial solution: No
Trivial flow violations prevented generating 1186389 variables.
Version identifier: 20.1.0.0 | 2020-11-10 | 9bedb6d68
CPXPARAM_Threads                                 4
CPXPARAM_TimeLimit                               999999
Parallel mode: deterministic, using up to 4 threads for concurrent optimization:
 * Starting dual Simplex on 1 thread...
 * Starting Barrier on 3 threads...
Tried aggregator 1 time.
LP Presolve eliminated 45666 rows and 10031 columns.
Reduced LP has 1200104 rows, 1138070 columns, and 27220759 nonzeros.
Presolve time = 30.42 sec. (5983.17 ticks)
Symmetry aggregator did 1922297 additional substitutions.

Iteration log . . .
Iteration:     1   Dual objective     =             0.000000
Iteration:  1336   Dual objective     =           398.000000

Dual crossover.
  Dual:  Fixing 2086 variables.
     2085 DMoves:  Infeasibility  1.17450494e-12  Objective  4.02333333e+02
        0 DMoves:  Infeasibility  7.06434911e-13  Objective  4.02333333e+02
  Dual:  Pushed 37, exchanged 2049.
  Primal:  Fixing 1120 variables.
     1119 PMoves:  Infeasibility  0.00000000e+00  Objective  4.02333333e+02
        0 PMoves:  Infeasibility  0.00000000e+00  Objective  4.02333333e+02
  Primal:  Pushed 970, exchanged 150.

Dual simplex solved model.


Solution status from MIP model:
-- Processing time: 51.42 sec.
-- Memory used: 1119.4 MB
-- Best bound: inf
-- Obj value: 402.333
-- Gap: inf%
-- Total distance: 1207
-- Total tardiness: 0
-- Largest tardiness: 0
